2 47
9 30
41 30
15 32
49 15
13 6
1 32
41 32
10 47
47 28
42 47
39 50
8 18
32 28
31 15
16 32
9 9
3 35
1 6
11 31
17 16
4 41
6 35
26 10
13 38
35 31
41 16
31 27
2 41
21 17
44 35
11 18
7 13
16 3
31 37
50 1
44 16
15 46
8 31
11 29
